c Sudoku solution
p cnf 729 0
164 0
183 0
212 0
245 0
267 0
296 0
319 0
336 0
385 0
398 0
468 0
474 0
284 0
324 0
377 0
515 0
531 0
643 0
656 0
146 0
695 0
455 0
754 0
544 0
772 0
192 0
838 0
233 0
847 0
557 0
922 0
937 0
634 0
432 0
135 0
739 0
342 0
852 0
973 0
875 0
725 0
965 0
353 0
361 0
951 0
748 0
949 0
988 0
916 0
814 0
994 0
441 0
576 0
426 0
678 0
681 0
582 0
569 0
662 0
528 0
413 0
617 0
629 0
593 0
711 0
823 0
797 0
786 0
763 0
866 0
118 0
127 0
221 0
171 0
279 0
159 0
258 0
889 0
891 0
487 0
499 0
